letting initialStacks = [11, 27, 10, 29, 16, 3, 25, 30, 41, 22, 20, 13, 40, 5, 35, 28, 4, 36, 50, 6, 34, 51, 17, 15, 23, 19, 49, 12, 24, 38, 1, 7, 32, 39, 46, 47, 44, 43, 21, 42, 8, 18, 33, 31, 26, 45, 9, 37, 14, 2, 48]
